30
2 0 42
4 0 53
4 3 7
5 1 14
5 3 69
7 0 44
8 1 34
8 2 69
8 5 34
8 7 72
10 2 40
11 10 22
12 0 28
12 4 78
13 10 12
13 11 14
14 0 25
14 1 27
14 4 63
14 7 19
14 10 29
15 3 45
15 6 39
15 13 64
16 9 78
16 10 5
16 14 68
17 0 6
17 9 19
17 11 17
17 13 51
17 15 22
17 16 44
18 2 38
18 6 15
18 7 61
19 0 65
19 1 21
19 3 16
19 15 31
20 1 16
20 2 49
20 3 61
20 6 10
20 12 55
20 18 40
21 17 52
21 18 44
22 1 64
22 11 32
23 8 75
23 16 21
24 4 64
24 7 65
24 10 80
24 17 78
24 19 14
25 3 45
25 8 66
25 19 66
25 22 28
25 23 19
26 0 36
26 3 21
26 7 23
26 8 20
26 9 51
26 12 23
26 16 22
26 23 60
27 1 57
27 9 76
28 8 11
28 11 80
28 21 14
28 22 66
29 3 10
29 11 32
29 16 65
29 25 48
